c "196769.clq"
p edge 139 540
e 1 5
e 1 6
e 1 8
e 1 16
e 1 22
e 1 24
e 1 25
e 1 26
e 1 37
e 1 41
e 1 48
e 1 49
e 1 54
e 1 55
e 1 65
e 1 69
e 1 73
e 1 74
e 1 77
e 1 88
e 1 96
e 1 112
e 1 120
e 1 122
e 1 130
e 2 5
e 2 9
e 2 10
e 2 17
e 2 26
e 2 30
e 2 31
e 2 35
e 2 36
e 2 37
e 2 41
e 2 53
e 2 60
e 2 74
e 2 76
e 2 104
e 2 120
e 3 5
e 3 6
e 3 7
e 3 12
e 3 13
e 3 14
e 3 15
e 3 16
e 3 17
e 3 21
e 3 26
e 3 28
e 3 31
e 3 33
e 3 43
e 3 52
e 3 61
e 3 62
e 3 64
e 3 68
e 3 78
e 3 91
e 3 105
e 3 111
e 3 131
e 3 138
e 4 5
e 4 6
e 4 7
e 4 9
e 4 12
e 4 18
e 4 19
e 4 24
e 4 27
e 4 28
e 4 32
e 4 35
e 4 38
e 4 46
e 4 65
e 4 90
e 4 95
e 4 97
e 4 103
e 4 112
e 4 121
e 4 135
e 4 137
e 4 139
e 5 6
e 5 7
e 5 8
e 5 9
e 5 11
e 5 14
e 5 15
e 5 16
e 5 21
e 5 23
e 5 24
e 5 31
e 5 40
e 5 55
e 5 66
e 5 68
e 5 75
e 5 88
e 5 93
e 5 102
e 5 110
e 5 123
e 5 125
e 5 129
e 6 7
e 6 8
e 6 9
e 6 10
e 6 11
e 6 13
e 6 14
e 6 15
e 6 16
e 6 19
e 6 20
e 6 22
e 6 23
e 6 26
e 6 29
e 6 30
e 6 35
e 6 44
e 6 46
e 6 60
e 6 73
e 6 76
e 6 77
e 6 81
e 6 87
e 6 91
e 6 94
e 6 101
e 6 105
e 6 107
e 6 108
e 6 113
e 6 114
e 6 118
e 6 119
e 6 122
e 6 124
e 6 133
e 7 8
e 7 10
e 7 11
e 7 12
e 7 20
e 7 22
e 7 25
e 7 27
e 7 32
e 7 34
e 7 35
e 7 50
e 7 56
e 7 69
e 7 70
e 7 84
e 7 86
e 7 103
e 7 127
e 8 10
e 8 17
e 8 18
e 8 20
e 8 29
e 8 34
e 8 38
e 8 41
e 8 67
e 8 84
e 8 91
e 8 108
e 9 11
e 9 19
e 9 25
e 9 27
e 9 28
e 9 37
e 9 55
e 9 68
e 9 83
e 9 94
e 9 113
e 9 118
e 10 12
e 10 13
e 10 21
e 10 25
e 10 36
e 10 45
e 10 47
e 10 52
e 10 70
e 10 92
e 10 99
e 10 104
e 10 106
e 10 109
e 10 115
e 10 130
e 11 14
e 11 47
e 11 54
e 11 55
e 11 84
e 11 117
e 12 13
e 12 15
e 12 18
e 12 21
e 12 36
e 12 43
e 12 46
e 12 48
e 12 49
e 12 50
e 12 51
e 12 69
e 12 82
e 12 95
e 12 98
e 12 103
e 12 104
e 12 116
e 13 39
e 13 51
e 13 52
e 13 71
e 13 79
e 13 93
e 13 94
e 13 98
e 14 18
e 14 31
e 14 44
e 14 62
e 14 72
e 14 106
e 14 110
e 14 130
e 15 20
e 15 34
e 15 42
e 15 45
e 15 59
e 15 72
e 15 87
e 15 110
e 16 17
e 16 29
e 16 40
e 16 66
e 16 69
e 16 137
e 17 23
e 17 43
e 17 61
e 17 75
e 17 83
e 17 100
e 17 132
e 17 136
e 18 19
e 18 27
e 18 40
e 18 57
e 18 85
e 18 97
e 18 130
e 18 132
e 18 139
e 19 23
e 19 40
e 19 45
e 19 97
e 19 103
e 19 133
e 20 22
e 20 28
e 20 33
e 20 37
e 20 59
e 20 64
e 20 87
e 20 92
e 20 98
e 20 100
e 21 24
e 21 30
e 21 60
e 21 88
e 21 138
e 22 51
e 22 53
e 22 57
e 22 89
e 22 90
e 22 97
e 22 111
e 22 120
e 22 121
e 22 129
e 23 33
e 23 38
e 23 42
e 23 47
e 23 51
e 23 53
e 23 56
e 23 58
e 23 72
e 23 73
e 23 75
e 23 81
e 23 95
e 23 102
e 23 110
e 23 118
e 23 122
e 23 126
e 23 135
e 24 34
e 24 48
e 24 61
e 24 66
e 24 71
e 24 74
e 24 78
e 24 89
e 24 91
e 24 113
e 24 132
e 24 135
e 25 29
e 25 30
e 25 32
e 25 53
e 25 68
e 25 83
e 25 88
e 25 115
e 26 33
e 26 38
e 26 39
e 26 45
e 26 64
e 26 85
e 26 108
e 26 115
e 26 117
e 26 119
e 27 47
e 28 32
e 28 52
e 28 56
e 28 92
e 28 111
e 28 120
e 28 125
e 29 101
e 30 39
e 30 42
e 30 67
e 30 128
e 31 39
e 31 62
e 31 79
e 31 102
e 31 127
e 31 134
e 32 78
e 32 109
e 32 124
e 33 58
e 33 99
e 34 56
e 34 61
e 34 62
e 34 90
e 34 124
e 35 36
e 35 41
e 35 49
e 35 50
e 35 70
e 35 77
e 35 78
e 35 100
e 35 105
e 35 107
e 35 113
e 35 125
e 35 129
e 35 139
e 36 49
e 37 43
e 37 44
e 37 58
e 37 139
e 38 73
e 38 80
e 38 89
e 38 98
e 38 100
e 38 107
e 38 114
e 39 44
e 39 46
e 39 79
e 39 80
e 39 82
e 39 112
e 40 60
e 40 63
e 40 121
e 41 42
e 41 64
e 41 67
e 42 66
e 42 77
e 42 85
e 42 106
e 43 48
e 43 92
e 43 117
e 43 119
e 44 50
e 44 57
e 44 58
e 44 59
e 44 75
e 44 89
e 44 99
e 45 86
e 45 125
e 46 76
e 46 80
e 48 54
e 49 59
e 49 86
e 49 129
e 50 54
e 50 63
e 50 74
e 50 109
e 51 65
e 51 99
e 51 117
e 52 82
e 52 101
e 53 57
e 53 63
e 53 71
e 53 124
e 54 82
e 54 87
e 54 107
e 54 111
e 54 116
e 55 90
e 56 63
e 57 80
e 57 134
e 58 95
e 58 128
e 58 136
e 59 70
e 59 81
e 60 84
e 60 133
e 61 65
e 61 67
e 61 93
e 62 81
e 62 83
e 62 93
e 62 102
e 62 118
e 64 72
e 64 106
e 67 79
e 67 126
e 67 137
e 68 71
e 68 76
e 68 132
e 68 136
e 71 96
e 72 135
e 72 137
e 73 96
e 74 116
e 75 101
e 76 104
e 76 114
e 76 116
e 77 134
e 78 128
e 80 133
e 81 85
e 82 86
e 82 108
e 82 123
e 82 127
e 82 131
e 84 122
e 84 126
e 84 131
e 86 131
e 88 94
e 88 96
e 88 126
e 90 105
e 93 119
e 93 123
e 95 109
e 95 114
e 96 112
e 100 136
e 103 123
e 103 134
e 104 127
e 105 138
e 107 138
e 108 115
e 111 128
e 115 121
